c description: Random 3-CNF over 14 variables and 59 clauses
c generator: CNFgen (0.9.2)
c copyright: (C) 2012-2022 Massimo Lauria <massimo.lauria@uniroma1.it>
c url: https://massimolauria.net/cnfgen
c command line: cnfgen --output CNF_4.28/14_bit_59_9.cnf randkcnf 3 14 59
c
p cnf 14 59
2 10 13 0
7 -12 14 0
2 11 13 0
-5 6 -7 0
-6 -7 -8 0
3 -12 14 0
-5 6 -11 0
1 -6 -7 0
-11 -12 -14 0
4 11 13 0
-12 -13 14 0
-7 -8 10 0
2 -6 -13 0
-1 5 -8 0
6 -9 -14 0
-2 4 13 0
7 -9 11 0
3 5 7 0
-6 -13 14 0
2 3 13 0
-3 -6 8 0
-1 -10 11 0
1 8 13 0
-6 -12 -14 0
-3 7 13 0
1 5 11 0
-4 7 12 0
-2 8 10 0
-3 7 -13 0
-1 -4 8 0
-4 -5 11 0
-3 11 12 0
1 -10 -11 0
1 13 -14 0
1 -2 -10 0
-11 -12 14 0
-4 -7 14 0
7 10 -13 0
-2 -6 -8 0
2 5 8 0
-4 10 -13 0
8 -10 -11 0
-2 5 -8 0
-1 -7 -8 0
-1 8 -12 0
4 6 -12 0
-2 5 7 0
-9 -10 -14 0
4 -9 13 0
-4 -6 -12 0
-1 9 10 0
9 -11 -12 0
1 4 -14 0
-3 -11 -13 0
-2 -5 11 0
-4 -5 8 0
-3 10 13 0
2 5 10 0
3 -10 12 0
